Exhaustiva10.tsp
DIMENSION: 10
NODE_COORD_SECTION
8 180.0323362975 -2743.2432432432
9 4970.2702702703 -69.0305790501
2 -376.8878718535 2496.3503649635
3 -201.0672358591 -2584.6715328467
4 -485.1258581236 -268.0981595092
5 288.5304659498 42.3043095866
6 445.9968602826 -125.5474452555
7 241.7582417582 317.3677069199
10 -1331.2883435583 189.9592944369
1 -707.1216617211 1963.4920634921
