Exhaustiva10.tour
NAME: Exhaustiva10.tour
TYPE: TOUR
DIMENSION: 10
SOLUTION: 28774.24058020
TOUR_SECTION
8,9,2,3,4,5,6,7,10,1,8
536.85517305 - 8,9
10897.12280981 - 9,2
9317.43136196 - 2,3
819.17149039 - 3,4
3211.42484226 - 4,5
3088.54524763 - 5,6
357.17330706 - 6,7
303.02966583 - 7,10
470.26442133 - 10,1
243.48668219 - 1,8
EOF